00
00
00
00
00
00
00
00
00
00
00
00
00
00
00
00
00
00
00
00
00
00
00
00
00
00
00
00
00
00
00
00
00
00
00
00
00
00
00
00
00
00
00
00
00
00
00
00
00
00
00
00
00
00
00
00
00
00
00
00
00
00
00
00
00
00
00
00
00
00
00
00
00
00
00
00
00
00
00
00
00
00
00
00
00
00
00
00
00
00
00
00
00
00
00
00
00
00
00
00
00
00
00
00
00
00
00
00
00
00
00
00
00
00
00
00
00
00
00
00
00
00
00
00
00
00
00
00
00
00
00
00
00
00
00
00
00
00
00
00
00
00
00
00
00
00
00
00
00
00
00
00
00
00
00
00
00
00
00
00
00
00
00
00
00
00
00
00
00
00
00
00
00
00
00
00
00
00
00
00
00
00
00
00
00
00
00
00
00
00
00
00
00
00
00
00
00
00
00
00
00
00
00
00
00
00
00
00
00
00
00
00
00
00
00
00
00
00
00
00
00
00
00
00
00
00
00
00
00
00
00
00
00
00
00
00
00
00
00
00
00
00
00
00
00
00
00
00
00
00
00
00
00
00
00
00
00
00
00
00
00
00
00
00
00
00
00
00
00
00
00
00
00
00
00
00
00
00
00
00
00
00
00
00
00
00
00
00
00
00
00
00
00
00
00
00
00
00
00
00
00
00
00
00
00
00
00
00
00
00
00
00
00
00
00
00
00
00
00
00
00
00
00
00
00
00
00
00
00
00
00
00
00
00
00
00
00
00
00
00
00
00
00
00
00
00
00
00
00
00
00
00
00
00
00
00
00
00
00
00
00
00
00
00
00
00
00
00
00
00
00
00
00
00
00
00
00
00
00
00
00
00
00
00
00
00
00
00
00
00
00
00
00
00
00
00
00
00
00
00
00
00
00
00
00
00
00
00
00
00
00
00
00
00
00
00
00
00
00
00
00
00
00
00
00
00
00
00
00
00
00
00
00
00
00
00
00
00
00
00
00
00
00
00
00
00
00
00
00
00
00
00
00
00
00
00
00
00
00
00
00
00
00
00
00
00
00
00
00
00
00
00
00
00
00
00
00
00
00
00
00
00
00
00
00
00
00
00
00
00
00
00
00
00
00
00
00
00
00
00
00
00
00
00
00
00
00
00
00
00
00
00
00
00
00
00
00
00
00
00
00
00
00
00
00
00
00
00
00
00
00
00
00
00
00
00
00
00
00
00
00
00
00
00
00
00
00
00
00
00
00
00
00
00
00
00
00
00
00
00
00
00
00
00
00
00
00
00
00
00
00
00
00
00
00
00
00
00
00
00
00
00
00
00
00
00
00
00
00
00
00
00
00
00
00
00
00
00
00
00
00
00
00
00
00
00
00
00
00
00
00
00
00
00
00
00
00
00
00
00
00
00
00
00
00
00
00
00
00
00
00
00
00
00
00
00
00
00
00
00
00
00
00
00
00
00
00
00
00
00
00
00
00
00
00
00
00
00
00
00
00
00
00
00
00
00
00
00
00
00
00
00
00
00
00
00
00
00
00
00
00
00
00
00
00
00
00
00
00
00
00
00
00
00
00
00
00
00
00
00
00
00
00
00
00
00
00
00
00
00
00
00
00
00
00
00
00
00
00
00
00
00
00
00
00
00
00
00
00
00
00
00
00
00
00
00
00
00
00
00
00
00
00
00
00
00
00
00
00
00
00
00
00
00
00
00
00
00
00
00
00
00
00
00
00
00
00
00
00
00
00
00
00
00
00
00
00
00
00
00
00
00
00
00
00
00
00
00
00
00
00
00
00
00
00
00
00
00
00
00
00
00
00
00
00
00
00
00
00
00
00
00
00
00
00
00
00
00
00
00
00
00
00
00
00
00
00
00
00
00
00
00
00
00
00
00
00
00
00
00
00
00
00
00
00
00
00
00
00
00
00
00
00
00
00
00
00
00
00
00
00
00
00
00
00
00
00
00
00
00
00
00
00
00
00
00
00
00
00
00
00
00
00
00
00
00
00
00
00
00
00
00
00
00
00
00
00
00
00
00
00
00
00
00
00
00
00
00
00
00
00
00
00
00
00
00
00
00
00
00
00
00
00
00
00
00
00
00
00
00
00
00
00
00
00
00
00
00
00
00
00
00
00
00
00
00
00
00
00
00
00
00
00
00
00
00
00
00
00
00
00
00
00
00
00
00
00
00
00
00
00
00
00
00
00
00
00
00
00
00
00
00
00
00
00
00
00
00
00
00
00
00
00
00
00
00
00
00
00
00
00
00
00
00
00
00
00
00
00
00
00
00
00
00
00
00
00
00
00
00
00
00
00
00
00
00
00
00
00
00
00
00
00
00
00
00
00
00
00
00
00
00
00
00
00
00
00
00
00
00
00
00
00
00
00
00
00
00
00
00
00
00
00
00
00
00
00
00
00
00
00
00
00
00
00
00
00
00
00
00
00
00
00
00
00
00
00
00
00
00
00
00
00
00
00
00
00
00
00
00
00
00
00
00
00
00
00
00
00
00
00
00
00
00
00
00
00
00
00
00
00
00
00
00
00
00
00
00
00
00
00
00
00
00
00
00
00
00
00
00
00
00
00
00
00
00
00
00
00
00
00
00
00
00
00
00
00
00
00
00
00
00
00
00
00
00
00
00
00
00
00
00
00
00
00
00
00
00
00
00
00
00
00
00
00
00
00
00
00
00
00
00
00
00
00
00
00
00
00
00
00
00
00
00
00
00
00
00
00
00
00
00
00
00
00
00
00
00
00
00
00
00
00
00
00
00
00
00
00
00
00
00
00
00
00
00
00
00
00
00
00
00
00
00
00
00
00
00
00
00
00
00
00
00
00
00
00
00
00
00
00
00
00
00
00
00
00
00
00
00
00
00
00
00
00
00
00
00
00
00
00
00
00
00
00
00
00
00
00
00
00
00
00
00
00
00
00
00
00
00
00
00
00
00
00
00
00
00
00
00
00
00
00
00
00
00
00
00
00
00
00
00
00
00
00
00
00
00
00
00
00
00
00
00
00
00
00
00
00
00
00
00
00
00
00
00
00
00
00
00
00
00
00
00
00
00
00
00
00
00
00
00
00
00
00
00
00
00
00
00
00
00
00
00
00
00
00
00
00
00
00
00
00
00
00
00
00
00
00
00
00
00
00
00
00
00
00
00
00
00
00
00
00
00
00
00
00
00
00
00
00
00
00
00
00
00
00
00
00
00
00
00
00
00
00
00
00
00
00
00
00
00
00
00
00
00
00
00
00
00
00
00
00
00
00
00
00
00
00
00
00
00
00
00
00
00
00
00
00
00
00
00
00
00
00
00
00
00
00
00
00
00
00
00
00
00
00
00
00
00
00
00
00
00
00
00
00
00
00
00
00
00
00
00
00
00
00
00
00
00
00
00
00
00
00
00
00
00
00
00
00
00
00
00
00
00
00
00
00
00
00
00
00
00
00
00
00
00
00
00
00
00
00
00
00
00
00
00
00
00
00
00
00
00
00
00
00
00
00
00
00
00
00
00
00
00
00
00
00
00
00
00
00
00
00
00
00
00
00
00
00
00
00
00
00
00
00
00
00
00
00
00
00
00
00
00
00
00
00
00
00
00
00
00
00
00
00
00
00
00
00
00
00
00
00
00
00
00
00
00
00
00
00
00
00
00
00
00
00
00
00
00
00
00
00
00
00
00
00
00
00
00
00
00
00
00
00
00
00
00
00
00
00
00
00
00
00
00
00
00
00
00
00
00
00
00
00
00
00
00
00
00
00
00
00
00
00
00
00
00
00
00
00
00
00
00
00
00
00
00
00
00
00
00
00
00
00
00
00
00
00
00
00
00
00
00
00
00
00
00
00
00
00
00
00
00
00
00
00
00
00
00
00
00
00
00
00
00
00
00
00
00
00
00
00
00
00
00
00
00
00
00
00
00
00
00
00
00
00
00
00
00
00
00
00
00
00
00
00
00
00
00
00
00
00
00
00
00
00
00
00
00
00
00
00
00
00
00
00
00
00
00
00
00
00
00
00
00
00
00
00
00
00
00
00
00
00
00
00
00
00
00
00
00
00
00
00
00
00
00
00
00
00
00
00
00
00
00
00
00
00
00
00
00
00
00
00
00
00
00
00
00
00
00
00
00
00
00
00
00
00
00
00
00
00
00
00
00
00
00
00
00
00
00
00
00
00
00
00
00
00
00
00
00
00
00
00
00
00
00
00
00
00
00
00
00
00
00
00
00
00
00
00
00
00
00
00
00
00
00
00
00
00
00
00
00
00
00
00
00
00
00
00
00
00
00
00
00
00
00
00
00
00
00
00
00
00
00
00
00
00
00
00
00
00
00
00
00
00
00
00
00
00
00
00
00
00
00
00
00
00
00
00
00
00
00
00
00
00
00
00
00
00
00
00
00
00
00
00
00
00
00
00
00
00
00
00
00
00
00
00
00
00
00
00
00
00
00
00
00
00
00
00
00
00
00
00
00
00
00
00
00
00
00
00
00
00
00
00
00
00
00
00
00
00
00
00
00
00
00
00
00
00
00
00
00
00
00
00
00
00
00
00
00
00
00
00
00
00
00
00
00
00
00
00
00
00
00
00
00
00
00
00
00
00
00
00
00
00
00
00
00
00
00
00
00
00
00
C8
76
76
31
EC
62
12
6B
29
EA
5F
86
BF
3D
DE
EC
A1
C5
91
03
FE
2B
20
6A
88
3E
8D
61
1A
21
0F
B5
6F
80
93
F6
CA
8D
CB
13
53
F6
82
21
6C
8C
03
5F
AF
4E
02
B4
45
78
B8
A5
45
B7
33
A8
DF
70
02
20
8D
C6
C4
17
58
6A
F4
8D
C3
BF
5A
CA
DA
92
86
B2
74
3B
61
AB
F7
D6
8D
D8
54
8D
50
D5
06
09
0E
1C
DF
91
1E
18
ED
1B
88
22
61
24
A7
B1
0B
28
A4
2A
E2
C8
F7
4F
F8
AD
A4
56
B9
28
40
68
22
E7
9B
3E
95
03
2D
48
65
2C
76
2D
FE
95
DB
2E
F5
22
47
99
C6
D5
67
B2
DA
DD
C1
94
CF
5B
22
8D
AE
54
FA
CD
20
F2
D2
22
50
72
23
52
22
39
57
60
05
E5
98
70
34
1F
E6
D2
C9
93
42
08
34
25
64
70
36
52
39
F1
94
15
BC
F4
8B
30
C4
26
DA
8B
7E
BC
78
33
8F
39
04
DC
A3
43
4D
EE
76
0A
59
9B
3A
63
39
69
BE
81
E8
7D
6C
B5
C8
39
38
11
51
68
39
F6
8D
C8
0A
F5
BE
1F
8F
52
94
01
8E
BD
4E
C5
B3
D3
53
D9
C9
6D
69
29
64
34
F4
3B
B8
BA
9A
32
1A
7A
93
7E
02
8C
EF
6B
7A
31
7A
84
3A
39
A1
7A
43
7D
EA
9A
25
BA
70
BC
97
EA
C0
08
86
0A
29
93
85
71
88
0F
B3
C5
56
41
1C
02
3D
2F
75
ED
E1
43
8B
78
60
66
43
68
05
04
43
5E
F0
43
32
3F
FF
9A
C7
CC
F9
09
64
01
5D
97
CD
D4
2C
7B
30
1F
31
2F
43
B5
7A
B1
8B
33
39
43
60
2A
19
8A
3F
43
59
67
50
58
43
BB
26
CC
F9
BC
08
FA
0D
9A
3F
7A
3A
0A
7E
A2
7A
4A
65
3E
2F
E1
49
DC
7A
5C
32
7A
4C
F9
36
25
BA
86
DA
D5
43
AF
96
E4
6F
ED
F8
0E
FF
FD
BA
84
F8
75
42
7C
B4
07
88
F0
6B
E8
AE
38
64
01
4B
AE
95
34
ED
CE
D4
9C
9F
03
16
B8
D1
57
D3
CE
D4
5E
2B
8A
55
B4
07
99
D8
23
11
0A
1A
DA
0A
1B
12
24
7C
AE
22
28
2A
2D
85
3C
B5
38
31
DE
F9
30
33
C7
BC
7B
51
81
5B
3D
33
64
25
30
8B
BB
3C
BA
19
DF
E6
02
36
70
46
C3
AF
36
5F
E6
92
34
A6
3C
7A
EE
84
6D
B1
DC
67
96
75
13
8A
99
3C
F6
3F
93
AC
7D
CB
57
9C
3C
60
5C
C9
97
3C
AB
F2
50
89
19
D4
48
2E
9E
95
BB
23
54
63
0C
2E
B9
56
48
2D
7B
AB
07
DE
91
E2
8E
40
28
A6
35
B7
40
41
E2
44
A4
46
AB
06
B2
7C
EC
E5
99
4D
0F
FB
58
27
DC
AB
D3
E1
4F
9C
CD
5A
61
AC
AB
24
97
F7
5C
AB
52
7B
B3
06
53
6A
FE
8E
C5
87
F4
7A
6B
3A
43
9A
BA
31
BC
47
D0
27
EC
D7
E7
A7
E2
68
9D
76
E5
FD
DD
71
2A
F5
8F
AE
D2
DD
E4
DD
7C
16
17
94
DD
CA
2B
AD
76
E8
9D
DB
9F
29
C1
50
06
EC
89
D7
2A
AA
ED
66
43
32
9A
B0
F9
09
8F
D8
5B
EE
84
81
76
20
22
28
A4
76
2E
CA
03
76
B6
44
76
9B
57
07
E5
15
55
8B
CF
2B
D3
21
53
71
C5
C2
8E
CE
64
1D
AA
96
97
5D
FC
5F
A6
CB
96
81
12
B4
8C
1B
96
4A
82
4F
99
96
91
AF
A2
D4
92
D6
7D
88
4D
91
3D
1D
05
3F
51
3D
25
BC
1F
99
FE
AA
6E
3D
2E
19
3D
26
F2
1B
9C
5D
43
6D
F9
72
39
8B
F2
C7
F1
F6
02
F7
9E
3E
8D
F6
78
C8
7B
3C
01
E6
4F
34
27
79
09
9B
EA
38
79
53
85
42
6D
A1
BA
99
C2
06
F1
E0
F5
97
92
BB
81
20
C8
97
36
7B
B5
24
09
75
90
88
3F
BB
F9
FF
2A
A7
0B
56
2D
D1
68
A6
BB
EE
E8
89
68
FE
2A
60
F5
01
C3
C4
CF
8F
20
D2
70
52
5B
D2
EC
72
4F
AE
78
8F
B4
BB
F8
AF
AA
35
2C
05
BB
5F
C7
40
A6
9A
CC
31
2F
26
E6
F9
44
46
64
BB
30
9E
BB
48
1E
A9
0F
27
F6
67
EB
19
B7
E2
0F
26
3D
1F
05
FF
6D
43
9C
89
9D
7B
BD
FB
82
D5
71
90
81
8C
F1
B8
AF
4E
5E
80
B8
DF
A0
83
29
98
F4
64
B8
A2
7E
B8
2F
4A
04
32
EF
49
ED
0C
76
F3
91
BD
21
06
71
55
3D
D6
98
C3
E9
6D
38
04
4B
CE
A0
6B
90
6A
D9
09
7E
C8
6B
49
51
86
85
4C
6B
84
65
EF
18
6B
FA
BA
1F
1C
02
2F
0F
FB
80
47
0D
E2
C5
0C
F7
20
D8
44
B6
76
03
C6
72
40
AD
03
95
C4
4E
03
28
79
03
4C
EE
E0
EC
55
50
15
C1
CA
B9
A9
03
EC
F7
D0
8D
9F
41
27
54
5A
D0
E8
D0
2B
71
C4
47
D0
16
CA
A7
E7
D7
41
03
E4
9C
F0
72
60
44
50
69
DA
3A
E7
27
AB
28
33
3C
17
38
92
1E
18
11
B6
AF
99
FF
C3
57
E6
CD
28
C6
4C
BA
B0
18
A9
32
1C
57
74
90
C3
4A
8A
77
9D
6A
5F
CB
73
1E
11
9D
B8
4B
44
A9
32
DA
5B
F7
E5
35
AD
9B
39
DA
89
9D
7B
BD
FB
82
D5
71
6D
A3
F5
FC
94
D8
C3
92
C0
B3
D0
F3
41
E4
B6
17
61
41
A4
3E
0A
53
1E
4E
8E
41
87
48
41
85
D9
6F
47
5A
B2
E3
FF
13
66
69
04
C0
F1
B0
77
76
F3
91
BD
21
06
71
55
65
10
E0
F7
3B
A5
FA
F8
B9
E1
F7
C1
22
83
75
C6
F7
27
AC
D0
E3
F7
9E
A7
40
B6
A4
9B
08
BF
AE
31
9D
C9
0A
59
E6
A5
4B
60
75
8C
51
5B
BB
57
96
51
81
CE
9B
51
CB
84
51
0E
90
5C
05
78
8B
2F
3D
02
6B
73
8C
9A
02
B8
45
5E
EF
BA
7E
77
B8
9C
B8
B0
C7
A6
EA
B8
1D
AF
7A
1A
32
EF
8C
96
F0
C5
0E
89
9A
43
44
AB
28
33
3C
8A
AF
E5
76
F6
E9
8D
3B
65
A8
02
20
F5
BB
97
AF
99
FF
C3
65
4B
AC
55
41
77
A7
B2
1C
75
0B
90
46
F3
50
77
CB
20
DB
11
98
D4
B8
F7
8F
A2
6C
E1
38
6D
3C
34
36
DE
C7
C8
28
2C
95
F2
22
E5
24
29
F0
C9
14
64
1D
5F
41
A9
C6
14
3B
E3
C2
D9
16
14
D0
6A
C4
D8
14
79
03
E7
FC
12
4A
22
20
27
8F
2E
76
A4
28
08
C0
EA
85
93
29
0A
AE
31
9D
C9
0A
59
A2
B9
0A
F0
0B
0A
B5
5E
7A
52
E3
FD
7E
BC
86
67
37
0F
7B
0C
B7
83
D9
58
BB
19
2F
B7
6F
B7
87
A8
F3
46
B7
4E
C5
01
5C
AC
58
0F
53
6B
85
DD
F0
AA
88
68
C4
69
2E
D3
90
44
F1
66
AB
6C
70
33
3C
A4
AD
02
90
F0
3B
B6
5F
B3
79
99
FF
C3
9A
DC
35
C9
30
2D
71
5D
C1
76
0A
CC
F8
F2
8B
39
3C
36
2D
47
43
4D
FB
30
A5
C3
A6
69
8C
3C
CB
6E
F9
A7
5D
23
0F
FB
C7
BD
EF
53
FB
21
9E
7D
FB
80
3F
FB
24
47
D5
1E
0D
1D
E2
8E
0C
B1
D1
0A
52
08
DA
09
65
9B
D2
E5
C1
DA
4A
DA
FA
3B
A2
8F
DA
74
86
F5
68
C8
9B
0A
62
F9
08
F0
A2
06
F3
8B
69
A5
20
79
44
F7
8C
02
28
33
3C
01
A6
8F
06
60
02
D0
A4
EC
B6
1C
58
AF
DD
E9
FF
C3
99
86
1A
71
D7
B8
76
8D
CC
E0
82
D4
BE
8B
E6
3C
22
2C
D6
B8
AA
18
88
1B
DF
1C
1E
91
13
73
02
CE
B0
1E
FB
1E
6E
DE
AA
45
1E
A6
D4
F6
8C
21
73
1B
97
B9
0D
96
A0
CC
F0
BB
73
4E
34
69
E0
78
55
44
39
48
AB
22
28
33
F1
AB
A4
02
B5
26
58
B6
DA
E9
AF
21
99
BD
C3
FE
71
BB
73
76
67
6E
F8
82
31
3C
22
2D
C8
1F
9E
43
07
E9
81
CD
5D
B8
80
F0
C0
9C
CE
58
69
74
72
60
44
50
34
AB
2E
28
20
3C
6D
9E
D0
EF
02
7A
1C
14
B6
DD
5D
AF
0C
99
FF
71
11
E1
91
CC
F8
82
EC
07
DC
8B
40
AB
22
2D
B5
36
71
15
CC
5A
C9
36
22
2A
7C
B1
19
FB
DF
8D
0B
FC
A2
6F
42
4D
DA
59
7B
D1
8B
7E
7D
F7
31
A7
EC
C1
9B
58
7B
98
5F
5E
55
E4
4D
45
C4
7B
1B
AB
8E
7D
2C
3A
31
0D
75
C1
73
10
0A
92
45
E9
BF
D6
04
06
63
1D
A0
82
D2
73
53
DB
02

